183 300 220 205 234 212 214 244 229 236 222 230 227 207 232 217 224 228 216 235 216 205 243 203 231 205 247 234 205 240 209 220 234 204 225 242 216 239 210 219 249 232 249 200 213 204 217 237 232 207 221 248 237 238 225 242 243 246 225 248 235 209 217 243 238 216 235 203 229 245 247 228 226 245 228 214 224 219 200 205 200 247 228 211 234 227 202 227 223 228 249 232 211 241 225 249 206 234 226 236 202 222 238 202 241 240 216 239 208 242 245 233 238 247 244 221 248 246 222 220 248 221 227 233 211 226 231 242 209 231 201 236 227 239 212 243 228 229 231 210 220 225 217 207 246 210 202 244 206 225 238 228 246 239 211 231 214 242 247 248 248 249 233 224 211 246 216 214 249 248 249 243 247 216 250 217 226 201 210 206 226 222 235 246 211 